data;
set K:= K1 K2 K3 K4 K5 K6 K7 K8 K9 K10 ;

set F:= F1 F2 F3 ;

set Q:= Q1 Q2 ;

param T:= 45;
param V: 
	K1  K2  K3  K4  K5  K6  K7  K8  K9  K10 :=
Q1	1   1   1   1   1   1   0   0   0   0   
Q2	0   0   0   0   0   0   1   1   1   1   
; # if resorce k is of type q

param TF:= 
K1 6
K2 6
K3 6
K4 6
K5 6
K6 6
K7 12
K8 12
K9 12
K10 12
; # number of continuous time slots resource can fly

param TR:= 
K1 2
K2 2
K3 2
K4 2
K5 2
K6 2
K7 4
K8 4
K9 4
K10 4
; #  number of continuous time slots resource k needs to rest between flights

param P:= 
K1 36
K2 36
K3 36
K4 36
K5 36
K6 36
K7 36
K8 36
K9 36
K10 36
; #  number of continuous time slots a pilot can be present including rest times for resource k 

param N:= 
K1 4
K2 4
K3 4
K4 4
K5 4
K6 4
K7 2
K8 2
K9 2
K10 2
; # max number of flights resource k can fly in the total time period

param A: 
	K1  K2  K3  K4  K5  K6  K7  K8  K9  K10 :=
1	1   1   1   1   1   1   1   1   1   1   
2	1   1   1   1   1   1   1   1   1   1   
3	1   1   1   1   1   1   1   1   1   1   
4	1   1   1   1   1   1   1   1   1   1   
5	1   1   1   1   1   1   1   1   1   1   
6	1   1   1   1   1   1   1   1   1   1   
7	1   1   1   1   1   1   1   1   1   1   
8	1   1   1   1   1   1   1   1   1   1   
9	1   1   1   1   1   1   1   1   1   1   
10	1   1   1   1   1   1   1   1   1   1   
11	1   1   1   1   1   1   1   1   1   1   
12	1   1   1   1   1   1   1   1   1   1   
13	1   1   1   1   1   1   1   1   1   1   
14	1   1   1   1   1   1   1   1   1   1   
15	1   1   1   1   1   1   1   1   1   1   
16	1   1   1   1   1   1   1   1   1   1   
17	1   1   1   1   1   1   1   1   1   1   
18	1   1   1   1   1   1   1   1   1   1   
19	1   1   1   1   1   1   1   1   1   1   
20	1   1   1   1   1   1   1   1   1   1   
21	1   1   1   1   1   1   1   1   1   1   
22	1   1   1   1   1   1   1   1   1   1   
23	1   1   1   1   1   1   1   1   1   1   
24	1   1   1   1   1   1   1   1   1   1   
25	1   1   1   1   1   1   1   1   1   1   
26	1   1   1   1   1   1   1   1   1   1   
27	1   1   1   1   1   1   1   1   1   1   
28	1   1   1   1   1   1   1   1   1   1   
29	1   1   1   1   1   1   1   1   1   1   
30	1   1   1   1   1   1   1   1   1   1   
31	1   1   1   1   1   1   1   1   1   1   
32	1   1   1   1   1   1   1   1   1   1   
33	1   1   1   1   1   1   1   1   1   1   
34	1   1   1   1   1   1   1   1   1   1   
35	1   1   1   1   1   1   1   1   1   1   
36	1   1   1   1   1   1   1   1   1   1   
37	1   1   1   1   1   1   1   1   1   1   
38	1   1   1   1   1   1   1   1   1   1   
39	1   1   1   1   1   1   1   1   1   1   
40	1   1   1   1   1   1   1   1   1   1   
41	1   1   1   1   1   1   1   1   1   1   
42	1   1   1   1   1   1   1   1   1   1   
43	1   1   1   1   1   1   1   1   1   1   
44	1   1   1   1   1   1   1   1   1   1   
45	1   1   1   1   1   1   1   1   1   1   
; # availability of resorce k in time slot t

param B: 
	F1  F2  F3  :=
Q1	0   0   0   
Q2	0   0   0   
; # if front f requires resources of type q

param U: 
	F1  F2  F3  :=
K1	0   0   0   
K2	0   0   0   
K3	0   0   0   
K4	0   0   0   
K5	0   0   0   
K6	0   0   0   
K7	0   0   0   
K8	0   0   0   
K9	1   1   1   
K10	1   1   1   
; # transit time of resource

param C:= 
K1 900
K2 900
K3 900
K4 1500
K5 4500
K6 2100
K7 5500
K8 5500
K9 5500
K10 5500
; #  water capacity of resource k

param S:= 
F1 8
F2 10
F3 7
; # max number of resources that can fly at front f in the same time slot

param D:= 

[*,*,F1 ]:  K1    K2    K3    K4    K5    K6    K7    K8    K9    K10   :=
1           1.80  1.80  1.80  1.80  1.44  1.80  1.08  1.08  1.08  1.08  
2           1.80  1.80  1.80  1.80  1.44  1.80  1.08  1.08  1.08  1.08  
3           1.80  1.80  1.80  1.80  1.44  1.80  1.08  1.08  1.08  1.08  
4           1.80  1.80  1.80  1.80  1.44  1.80  1.08  1.08  1.08  1.08  
5           1.80  1.80  1.80  1.80  1.44  1.80  1.08  1.08  1.08  1.08  
6           1.80  1.80  1.80  1.80  1.44  1.80  1.08  1.08  1.08  1.08  
7           1.80  1.80  1.80  1.80  1.44  1.80  1.08  1.08  1.08  1.08  
8           1.80  1.80  1.80  1.80  1.44  1.80  1.08  1.08  1.08  1.08  
9           1.80  1.80  1.80  1.80  1.44  1.80  1.08  1.08  1.08  1.08  
10          1.80  1.80  1.80  1.80  1.44  1.80  1.08  1.08  1.08  1.08  
11          1.80  1.80  1.80  1.80  1.44  1.80  1.08  1.08  1.08  1.08  
12          1.80  1.80  1.80  1.80  1.44  1.80  1.08  1.08  1.08  1.08  
13          1.80  1.80  1.80  1.80  1.44  1.80  1.08  1.08  1.08  1.08  
14          1.80  1.80  1.80  1.80  1.44  1.80  1.08  1.08  1.08  1.08  
15          1.80  1.80  1.80  1.80  1.44  1.80  1.08  1.08  1.08  1.08  
16          1.80  1.80  1.80  1.80  1.44  1.80  1.08  1.08  1.08  1.08  
17          1.80  1.80  1.80  1.80  1.44  1.80  1.08  1.08  1.08  1.08  
18          1.80  1.80  1.80  1.80  1.44  1.80  1.08  1.08  1.08  1.08  
19          1.80  1.80  1.80  1.80  1.44  1.80  1.08  1.08  1.08  1.08  
20          1.80  1.80  1.80  1.80  1.44  1.80  1.08  1.08  1.08  1.08  
21          1.80  1.80  1.80  1.80  1.44  1.80  1.08  1.08  1.08  1.08  
22          1.80  1.80  1.80  1.80  1.44  1.80  1.08  1.08  1.08  1.08  
23          1.80  1.80  1.80  1.80  1.44  1.80  1.08  1.08  1.08  1.08  
24          1.80  1.80  1.80  1.80  1.44  1.80  1.08  1.08  1.08  1.08  
25          1.71  1.71  1.71  1.71  1.36  1.71  1.03  1.03  1.03  1.03  
26          1.71  1.71  1.71  1.71  1.36  1.71  1.03  1.03  1.03  1.03  
27          1.71  1.71  1.71  1.71  1.36  1.71  1.03  1.03  1.03  1.03  
28          1.71  1.71  1.71  1.71  1.36  1.71  1.03  1.03  1.03  1.03  
29          1.71  1.71  1.71  1.71  1.36  1.71  1.03  1.03  1.03  1.03  
30          1.71  1.71  1.71  1.71  1.36  1.71  1.03  1.03  1.03  1.03  
31          1.71  1.71  1.71  1.71  1.36  1.71  1.03  1.03  1.03  1.03  
32          1.71  1.71  1.71  1.71  1.36  1.71  1.03  1.03  1.03  1.03  
33          1.71  1.71  1.71  1.71  1.36  1.71  1.03  1.03  1.03  1.03  
34          1.80  1.80  1.80  1.80  1.44  1.80  1.08  1.08  1.08  1.08  
35          1.80  1.80  1.80  1.80  1.44  1.80  1.08  1.08  1.08  1.08  
36          1.80  1.80  1.80  1.80  1.44  1.80  1.08  1.08  1.08  1.08  
37          1.80  1.80  1.80  1.80  1.44  1.80  1.08  1.08  1.08  1.08  
38          1.80  1.80  1.80  1.80  1.44  1.80  1.08  1.08  1.08  1.08  
39          1.80  1.80  1.80  1.80  1.44  1.80  1.08  1.08  1.08  1.08  
40          1.80  1.80  1.80  1.80  1.44  1.80  1.08  1.08  1.08  1.08  
41          1.80  1.80  1.80  1.80  1.44  1.80  1.08  1.08  1.08  1.08  
42          1.80  1.80  1.80  1.80  1.44  1.80  1.08  1.08  1.08  1.08  
43          1.80  1.80  1.80  1.80  1.44  1.80  1.08  1.08  1.08  1.08  
44          1.80  1.80  1.80  1.80  1.44  1.80  1.08  1.08  1.08  1.08  
45          1.80  1.80  1.80  1.80  1.44  1.80  1.08  1.08  1.08  1.08  

[*,*,F2 ]:  K1    K2    K3    K4    K5    K6    K7    K8    K9    K10   :=
1           1.39  1.39  1.39  1.39  1.10  1.39  0.83  0.83  0.83  0.83  
2           1.39  1.39  1.39  1.39  1.10  1.39  0.83  0.83  0.83  0.83  
3           1.39  1.39  1.39  1.39  1.10  1.39  0.83  0.83  0.83  0.83  
4           1.39  1.39  1.39  1.39  1.10  1.39  0.83  0.83  0.83  0.83  
5           1.39  1.39  1.39  1.39  1.10  1.39  0.83  0.83  0.83  0.83  
6           1.39  1.39  1.39  1.39  1.10  1.39  0.83  0.83  0.83  0.83  
7           1.39  1.39  1.39  1.39  1.10  1.39  0.83  0.83  0.83  0.83  
8           1.39  1.39  1.39  1.39  1.10  1.39  0.83  0.83  0.83  0.83  
9           1.39  1.39  1.39  1.39  1.10  1.39  0.83  0.83  0.83  0.83  
10          1.39  1.39  1.39  1.39  1.10  1.39  0.83  0.83  0.83  0.83  
11          1.39  1.39  1.39  1.39  1.10  1.39  0.83  0.83  0.83  0.83  
12          1.39  1.39  1.39  1.39  1.10  1.39  0.83  0.83  0.83  0.83  
13          1.39  1.39  1.39  1.39  1.10  1.39  0.83  0.83  0.83  0.83  
14          1.39  1.39  1.39  1.39  1.10  1.39  0.83  0.83  0.83  0.83  
15          1.39  1.39  1.39  1.39  1.10  1.39  0.83  0.83  0.83  0.83  
16          1.39  1.39  1.39  1.39  1.10  1.39  0.83  0.83  0.83  0.83  
17          1.39  1.39  1.39  1.39  1.10  1.39  0.83  0.83  0.83  0.83  
18          1.39  1.39  1.39  1.39  1.10  1.39  0.83  0.83  0.83  0.83  
19          1.39  1.39  1.39  1.39  1.10  1.39  0.83  0.83  0.83  0.83  
20          1.39  1.39  1.39  1.39  1.10  1.39  0.83  0.83  0.83  0.83  
21          1.39  1.39  1.39  1.39  1.10  1.39  0.83  0.83  0.83  0.83  
22          1.39  1.39  1.39  1.39  1.10  1.39  0.83  0.83  0.83  0.83  
23          1.39  1.39  1.39  1.39  1.10  1.39  0.83  0.83  0.83  0.83  
24          1.39  1.39  1.39  1.39  1.10  1.39  0.83  0.83  0.83  0.83  
25          1.32  1.32  1.32  1.32  1.05  1.32  0.79  0.79  0.79  0.79  
26          1.32  1.32  1.32  1.32  1.05  1.32  0.79  0.79  0.79  0.79  
27          1.32  1.32  1.32  1.32  1.05  1.32  0.79  0.79  0.79  0.79  
28          1.32  1.32  1.32  1.32  1.05  1.32  0.79  0.79  0.79  0.79  
29          1.32  1.32  1.32  1.32  1.05  1.32  0.79  0.79  0.79  0.79  
30          1.32  1.32  1.32  1.32  1.05  1.32  0.79  0.79  0.79  0.79  
31          1.32  1.32  1.32  1.32  1.05  1.32  0.79  0.79  0.79  0.79  
32          1.32  1.32  1.32  1.32  1.05  1.32  0.79  0.79  0.79  0.79  
33          1.32  1.32  1.32  1.32  1.05  1.32  0.79  0.79  0.79  0.79  
34          1.39  1.39  1.39  1.39  1.10  1.39  0.83  0.83  0.83  0.83  
35          1.39  1.39  1.39  1.39  1.10  1.39  0.83  0.83  0.83  0.83  
36          1.39  1.39  1.39  1.39  1.10  1.39  0.83  0.83  0.83  0.83  
37          1.39  1.39  1.39  1.39  1.10  1.39  0.83  0.83  0.83  0.83  
38          1.39  1.39  1.39  1.39  1.10  1.39  0.83  0.83  0.83  0.83  
39          1.39  1.39  1.39  1.39  1.10  1.39  0.83  0.83  0.83  0.83  
40          1.39  1.39  1.39  1.39  1.10  1.39  0.83  0.83  0.83  0.83  
41          1.39  1.39  1.39  1.39  1.10  1.39  0.83  0.83  0.83  0.83  
42          1.39  1.39  1.39  1.39  1.10  1.39  0.83  0.83  0.83  0.83  
43          1.39  1.39  1.39  1.39  1.10  1.39  0.83  0.83  0.83  0.83  
44          1.39  1.39  1.39  1.39  1.10  1.39  0.83  0.83  0.83  0.83  
45          1.39  1.39  1.39  1.39  1.10  1.39  0.83  0.83  0.83  0.83  

[*,*,F3 ]:  K1    K2    K3    K4    K5    K6    K7    K8    K9    K10   :=
1           1.95  1.95  1.95  1.95  1.56  1.95  1.17  1.17  1.17  1.17  
2           1.95  1.95  1.95  1.95  1.56  1.95  1.17  1.17  1.17  1.17  
3           1.95  1.95  1.95  1.95  1.56  1.95  1.17  1.17  1.17  1.17  
4           1.95  1.95  1.95  1.95  1.56  1.95  1.17  1.17  1.17  1.17  
5           1.95  1.95  1.95  1.95  1.56  1.95  1.17  1.17  1.17  1.17  
6           1.95  1.95  1.95  1.95  1.56  1.95  1.17  1.17  1.17  1.17  
7           1.95  1.95  1.95  1.95  1.56  1.95  1.17  1.17  1.17  1.17  
8           1.95  1.95  1.95  1.95  1.56  1.95  1.17  1.17  1.17  1.17  
9           1.95  1.95  1.95  1.95  1.56  1.95  1.17  1.17  1.17  1.17  
10          1.95  1.95  1.95  1.95  1.56  1.95  1.17  1.17  1.17  1.17  
11          1.95  1.95  1.95  1.95  1.56  1.95  1.17  1.17  1.17  1.17  
12          1.95  1.95  1.95  1.95  1.56  1.95  1.17  1.17  1.17  1.17  
13          1.95  1.95  1.95  1.95  1.56  1.95  1.17  1.17  1.17  1.17  
14          1.95  1.95  1.95  1.95  1.56  1.95  1.17  1.17  1.17  1.17  
15          1.95  1.95  1.95  1.95  1.56  1.95  1.17  1.17  1.17  1.17  
16          1.95  1.95  1.95  1.95  1.56  1.95  1.17  1.17  1.17  1.17  
17          1.95  1.95  1.95  1.95  1.56  1.95  1.17  1.17  1.17  1.17  
18          1.95  1.95  1.95  1.95  1.56  1.95  1.17  1.17  1.17  1.17  
19          1.95  1.95  1.95  1.95  1.56  1.95  1.17  1.17  1.17  1.17  
20          1.95  1.95  1.95  1.95  1.56  1.95  1.17  1.17  1.17  1.17  
21          1.95  1.95  1.95  1.95  1.56  1.95  1.17  1.17  1.17  1.17  
22          1.95  1.95  1.95  1.95  1.56  1.95  1.17  1.17  1.17  1.17  
23          1.95  1.95  1.95  1.95  1.56  1.95  1.17  1.17  1.17  1.17  
24          1.95  1.95  1.95  1.95  1.56  1.95  1.17  1.17  1.17  1.17  
25          1.86  1.86  1.86  1.86  1.48  1.86  1.11  1.11  1.11  1.11  
26          1.86  1.86  1.86  1.86  1.48  1.86  1.11  1.11  1.11  1.11  
27          1.86  1.86  1.86  1.86  1.48  1.86  1.11  1.11  1.11  1.11  
28          1.86  1.86  1.86  1.86  1.48  1.86  1.11  1.11  1.11  1.11  
29          1.86  1.86  1.86  1.86  1.48  1.86  1.11  1.11  1.11  1.11  
30          1.86  1.86  1.86  1.86  1.48  1.86  1.11  1.11  1.11  1.11  
31          1.86  1.86  1.86  1.86  1.48  1.86  1.11  1.11  1.11  1.11  
32          1.86  1.86  1.86  1.86  1.48  1.86  1.11  1.11  1.11  1.11  
33          1.86  1.86  1.86  1.86  1.48  1.86  1.11  1.11  1.11  1.11  
34          1.95  1.95  1.95  1.95  1.56  1.95  1.17  1.17  1.17  1.17  
35          1.95  1.95  1.95  1.95  1.56  1.95  1.17  1.17  1.17  1.17  
36          1.95  1.95  1.95  1.95  1.56  1.95  1.17  1.17  1.17  1.17  
37          1.95  1.95  1.95  1.95  1.56  1.95  1.17  1.17  1.17  1.17  
38          1.95  1.95  1.95  1.95  1.56  1.95  1.17  1.17  1.17  1.17  
39          1.95  1.95  1.95  1.95  1.56  1.95  1.17  1.17  1.17  1.17  
40          1.95  1.95  1.95  1.95  1.56  1.95  1.17  1.17  1.17  1.17  
41          1.95  1.95  1.95  1.95  1.56  1.95  1.17  1.17  1.17  1.17  
42          1.95  1.95  1.95  1.95  1.56  1.95  1.17  1.17  1.17  1.17  
43          1.95  1.95  1.95  1.95  1.56  1.95  1.17  1.17  1.17  1.17  
44          1.95  1.95  1.95  1.95  1.56  1.95  1.17  1.17  1.17  1.17  
45          1.95  1.95  1.95  1.95  1.56  1.95  1.17  1.17  1.17  1.17  
; # downloads resource k can do at front f in time t if intermediate time slot

param E:= 

[*,*,F1 ]:  K1    K2    K3    K4    K5    K6    K7    K8    K9    K10   :=
1           0.90  0.52  0.72  0.70  0.32  0.92  0.56  0.14  0.29  0.04  
2           0.90  0.52  0.72  0.70  0.32  0.92  0.56  0.14  0.29  0.04  
3           0.90  0.52  0.72  0.70  0.32  0.92  0.56  0.14  0.29  0.04  
4           0.90  0.52  0.72  0.70  0.32  0.92  0.56  0.14  0.29  0.04  
5           0.90  0.52  0.72  0.70  0.32  0.92  0.56  0.14  0.29  0.04  
6           0.90  0.52  0.72  0.70  0.32  0.92  0.56  0.14  0.29  0.04  
7           0.90  0.52  0.72  0.70  0.32  0.92  0.56  0.14  0.29  0.04  
8           0.90  0.52  0.72  0.70  0.32  0.92  0.56  0.14  0.29  0.04  
9           0.90  0.52  0.72  0.70  0.32  0.92  0.56  0.14  0.29  0.04  
10          0.90  0.52  0.72  0.70  0.32  0.92  0.56  0.14  0.29  0.04  
11          0.90  0.52  0.72  0.70  0.32  0.92  0.56  0.14  0.29  0.04  
12          0.90  0.52  0.72  0.70  0.32  0.92  0.56  0.14  0.29  0.04  
13          0.90  0.52  0.72  0.70  0.32  0.92  0.56  0.14  0.29  0.04  
14          0.90  0.52  0.72  0.70  0.32  0.92  0.56  0.14  0.29  0.04  
15          0.90  0.52  0.72  0.70  0.32  0.92  0.56  0.14  0.29  0.04  
16          0.90  0.52  0.72  0.70  0.32  0.92  0.56  0.14  0.29  0.04  
17          0.90  0.52  0.72  0.70  0.32  0.92  0.56  0.14  0.29  0.04  
18          0.90  0.52  0.72  0.70  0.32  0.92  0.56  0.14  0.29  0.04  
19          0.90  0.52  0.72  0.70  0.32  0.92  0.56  0.14  0.29  0.04  
20          0.90  0.52  0.72  0.70  0.32  0.92  0.56  0.14  0.29  0.04  
21          0.90  0.52  0.72  0.70  0.32  0.92  0.56  0.14  0.29  0.04  
22          0.90  0.52  0.72  0.70  0.32  0.92  0.56  0.14  0.29  0.04  
23          0.90  0.52  0.72  0.70  0.32  0.92  0.56  0.14  0.29  0.04  
24          0.90  0.52  0.72  0.70  0.32  0.92  0.56  0.14  0.29  0.04  
25          0.86  0.50  0.69  0.67  0.30  0.87  0.53  0.13  0.28  0.04  
26          0.86  0.50  0.69  0.67  0.30  0.87  0.53  0.13  0.28  0.04  
27          0.86  0.50  0.69  0.67  0.30  0.87  0.53  0.13  0.28  0.04  
28          0.86  0.50  0.69  0.67  0.30  0.87  0.53  0.13  0.28  0.04  
29          0.86  0.50  0.69  0.67  0.30  0.87  0.53  0.13  0.28  0.04  
30          0.86  0.50  0.69  0.67  0.30  0.87  0.53  0.13  0.28  0.04  
31          0.86  0.50  0.69  0.67  0.30  0.87  0.53  0.13  0.28  0.04  
32          0.86  0.50  0.69  0.67  0.30  0.87  0.53  0.13  0.28  0.04  
33          0.86  0.50  0.69  0.67  0.30  0.87  0.53  0.13  0.28  0.04  
34          0.90  0.52  0.72  0.70  0.32  0.92  0.56  0.14  0.29  0.04  
35          0.90  0.52  0.72  0.70  0.32  0.92  0.56  0.14  0.29  0.04  
36          0.90  0.52  0.72  0.70  0.32  0.92  0.56  0.14  0.29  0.04  
37          0.90  0.52  0.72  0.70  0.32  0.92  0.56  0.14  0.29  0.04  
38          0.90  0.52  0.72  0.70  0.32  0.92  0.56  0.14  0.29  0.04  
39          0.90  0.52  0.72  0.70  0.32  0.92  0.56  0.14  0.29  0.04  
40          0.90  0.52  0.72  0.70  0.32  0.92  0.56  0.14  0.29  0.04  
41          0.90  0.52  0.72  0.70  0.32  0.92  0.56  0.14  0.29  0.04  
42          0.90  0.52  0.72  0.70  0.32  0.92  0.56  0.14  0.29  0.04  
43          0.90  0.52  0.72  0.70  0.32  0.92  0.56  0.14  0.29  0.04  
44          0.90  0.52  0.72  0.70  0.32  0.92  0.56  0.14  0.29  0.04  
45          0.90  0.52  0.72  0.70  0.32  0.92  0.56  0.14  0.29  0.04  

[*,*,F2 ]:  K1    K2    K3    K4    K5    K6    K7    K8    K9    K10   :=
1           0.65  0.47  0.60  0.43  0.29  0.61  0.36  0.11  0.25  0.04  
2           0.65  0.47  0.60  0.43  0.29  0.61  0.36  0.11  0.25  0.04  
3           0.65  0.47  0.60  0.43  0.29  0.61  0.36  0.11  0.25  0.04  
4           0.65  0.47  0.60  0.43  0.29  0.61  0.36  0.11  0.25  0.04  
5           0.65  0.47  0.60  0.43  0.29  0.61  0.36  0.11  0.25  0.04  
6           0.65  0.47  0.60  0.43  0.29  0.61  0.36  0.11  0.25  0.04  
7           0.65  0.47  0.60  0.43  0.29  0.61  0.36  0.11  0.25  0.04  
8           0.65  0.47  0.60  0.43  0.29  0.61  0.36  0.11  0.25  0.04  
9           0.65  0.47  0.60  0.43  0.29  0.61  0.36  0.11  0.25  0.04  
10          0.65  0.47  0.60  0.43  0.29  0.61  0.36  0.11  0.25  0.04  
11          0.65  0.47  0.60  0.43  0.29  0.61  0.36  0.11  0.25  0.04  
12          0.65  0.47  0.60  0.43  0.29  0.61  0.36  0.11  0.25  0.04  
13          0.65  0.47  0.60  0.43  0.29  0.61  0.36  0.11  0.25  0.04  
14          0.65  0.47  0.60  0.43  0.29  0.61  0.36  0.11  0.25  0.04  
15          0.65  0.47  0.60  0.43  0.29  0.61  0.36  0.11  0.25  0.04  
16          0.65  0.47  0.60  0.43  0.29  0.61  0.36  0.11  0.25  0.04  
17          0.65  0.47  0.60  0.43  0.29  0.61  0.36  0.11  0.25  0.04  
18          0.65  0.47  0.60  0.43  0.29  0.61  0.36  0.11  0.25  0.04  
19          0.65  0.47  0.60  0.43  0.29  0.61  0.36  0.11  0.25  0.04  
20          0.65  0.47  0.60  0.43  0.29  0.61  0.36  0.11  0.25  0.04  
21          0.65  0.47  0.60  0.43  0.29  0.61  0.36  0.11  0.25  0.04  
22          0.65  0.47  0.60  0.43  0.29  0.61  0.36  0.11  0.25  0.04  
23          0.65  0.47  0.60  0.43  0.29  0.61  0.36  0.11  0.25  0.04  
24          0.65  0.47  0.60  0.43  0.29  0.61  0.36  0.11  0.25  0.04  
25          0.62  0.45  0.57  0.41  0.27  0.58  0.34  0.10  0.24  0.04  
26          0.62  0.45  0.57  0.41  0.27  0.58  0.34  0.10  0.24  0.04  
27          0.62  0.45  0.57  0.41  0.27  0.58  0.34  0.10  0.24  0.04  
28          0.62  0.45  0.57  0.41  0.27  0.58  0.34  0.10  0.24  0.04  
29          0.62  0.45  0.57  0.41  0.27  0.58  0.34  0.10  0.24  0.04  
30          0.62  0.45  0.57  0.41  0.27  0.58  0.34  0.10  0.24  0.04  
31          0.62  0.45  0.57  0.41  0.27  0.58  0.34  0.10  0.24  0.04  
32          0.62  0.45  0.57  0.41  0.27  0.58  0.34  0.10  0.24  0.04  
33          0.62  0.45  0.57  0.41  0.27  0.58  0.34  0.10  0.24  0.04  
34          0.65  0.47  0.60  0.43  0.29  0.61  0.36  0.11  0.25  0.04  
35          0.65  0.47  0.60  0.43  0.29  0.61  0.36  0.11  0.25  0.04  
36          0.65  0.47  0.60  0.43  0.29  0.61  0.36  0.11  0.25  0.04  
37          0.65  0.47  0.60  0.43  0.29  0.61  0.36  0.11  0.25  0.04  
38          0.65  0.47  0.60  0.43  0.29  0.61  0.36  0.11  0.25  0.04  
39          0.65  0.47  0.60  0.43  0.29  0.61  0.36  0.11  0.25  0.04  
40          0.65  0.47  0.60  0.43  0.29  0.61  0.36  0.11  0.25  0.04  
41          0.65  0.47  0.60  0.43  0.29  0.61  0.36  0.11  0.25  0.04  
42          0.65  0.47  0.60  0.43  0.29  0.61  0.36  0.11  0.25  0.04  
43          0.65  0.47  0.60  0.43  0.29  0.61  0.36  0.11  0.25  0.04  
44          0.65  0.47  0.60  0.43  0.29  0.61  0.36  0.11  0.25  0.04  
45          0.65  0.47  0.60  0.43  0.29  0.61  0.36  0.11  0.25  0.04  

[*,*,F3 ]:  K1    K2    K3    K4    K5    K6    K7    K8    K9    K10   :=
1           0.90  0.72  0.68  0.70  0.31  0.96  0.56  0.06  0.39  0.05  
2           0.90  0.72  0.68  0.70  0.31  0.96  0.56  0.06  0.39  0.05  
3           0.90  0.72  0.68  0.70  0.31  0.96  0.56  0.06  0.39  0.05  
4           0.90  0.72  0.68  0.70  0.31  0.96  0.56  0.06  0.39  0.05  
5           0.90  0.72  0.68  0.70  0.31  0.96  0.56  0.06  0.39  0.05  
6           0.90  0.72  0.68  0.70  0.31  0.96  0.56  0.06  0.39  0.05  
7           0.90  0.72  0.68  0.70  0.31  0.96  0.56  0.06  0.39  0.05  
8           0.90  0.72  0.68  0.70  0.31  0.96  0.56  0.06  0.39  0.05  
9           0.90  0.72  0.68  0.70  0.31  0.96  0.56  0.06  0.39  0.05  
10          0.90  0.72  0.68  0.70  0.31  0.96  0.56  0.06  0.39  0.05  
11          0.90  0.72  0.68  0.70  0.31  0.96  0.56  0.06  0.39  0.05  
12          0.90  0.72  0.68  0.70  0.31  0.96  0.56  0.06  0.39  0.05  
13          0.90  0.72  0.68  0.70  0.31  0.96  0.56  0.06  0.39  0.05  
14          0.90  0.72  0.68  0.70  0.31  0.96  0.56  0.06  0.39  0.05  
15          0.90  0.72  0.68  0.70  0.31  0.96  0.56  0.06  0.39  0.05  
16          0.90  0.72  0.68  0.70  0.31  0.96  0.56  0.06  0.39  0.05  
17          0.90  0.72  0.68  0.70  0.31  0.96  0.56  0.06  0.39  0.05  
18          0.90  0.72  0.68  0.70  0.31  0.96  0.56  0.06  0.39  0.05  
19          0.90  0.72  0.68  0.70  0.31  0.96  0.56  0.06  0.39  0.05  
20          0.90  0.72  0.68  0.70  0.31  0.96  0.56  0.06  0.39  0.05  
21          0.90  0.72  0.68  0.70  0.31  0.96  0.56  0.06  0.39  0.05  
22          0.90  0.72  0.68  0.70  0.31  0.96  0.56  0.06  0.39  0.05  
23          0.90  0.72  0.68  0.70  0.31  0.96  0.56  0.06  0.39  0.05  
24          0.90  0.72  0.68  0.70  0.31  0.96  0.56  0.06  0.39  0.05  
25          0.85  0.69  0.65  0.67  0.30  0.91  0.53  0.06  0.37  0.04  
26          0.85  0.69  0.65  0.67  0.30  0.91  0.53  0.06  0.37  0.04  
27          0.85  0.69  0.65  0.67  0.30  0.91  0.53  0.06  0.37  0.04  
28          0.85  0.69  0.65  0.67  0.30  0.91  0.53  0.06  0.37  0.04  
29          0.85  0.69  0.65  0.67  0.30  0.91  0.53  0.06  0.37  0.04  
30          0.85  0.69  0.65  0.67  0.30  0.91  0.53  0.06  0.37  0.04  
31          0.85  0.69  0.65  0.67  0.30  0.91  0.53  0.06  0.37  0.04  
32          0.85  0.69  0.65  0.67  0.30  0.91  0.53  0.06  0.37  0.04  
33          0.85  0.69  0.65  0.67  0.30  0.91  0.53  0.06  0.37  0.04  
34          0.90  0.72  0.68  0.70  0.31  0.96  0.56  0.06  0.39  0.05  
35          0.90  0.72  0.68  0.70  0.31  0.96  0.56  0.06  0.39  0.05  
36          0.90  0.72  0.68  0.70  0.31  0.96  0.56  0.06  0.39  0.05  
37          0.90  0.72  0.68  0.70  0.31  0.96  0.56  0.06  0.39  0.05  
38          0.90  0.72  0.68  0.70  0.31  0.96  0.56  0.06  0.39  0.05  
39          0.90  0.72  0.68  0.70  0.31  0.96  0.56  0.06  0.39  0.05  
40          0.90  0.72  0.68  0.70  0.31  0.96  0.56  0.06  0.39  0.05  
41          0.90  0.72  0.68  0.70  0.31  0.96  0.56  0.06  0.39  0.05  
42          0.90  0.72  0.68  0.70  0.31  0.96  0.56  0.06  0.39  0.05  
43          0.90  0.72  0.68  0.70  0.31  0.96  0.56  0.06  0.39  0.05  
44          0.90  0.72  0.68  0.70  0.31  0.96  0.56  0.06  0.39  0.05  
45          0.90  0.72  0.68  0.70  0.31  0.96  0.56  0.06  0.39  0.05  
; # downloads resource k can do at front f in time t if starting or ending flight

param W: 
	F1        F2        F3        :=
1	1397.75   698.88    698.88    
2	5591.02   2795.51   2795.51   
3	5591.02   2795.51   2795.51   
4	5591.02   2795.51   2795.51   
5	5591.02   2795.51   2795.51   
6	5591.02   2795.51   2795.51   
7	5591.02   2795.51   2795.51   
8	5591.02   2795.51   2795.51   
9	5591.02   2795.51   2795.51   
10	5591.02   2795.51   2795.51   
11	5591.02   2795.51   2795.51   
12	5591.02   2795.51   2795.51   
13	5591.02   2795.51   2795.51   
14	5591.02   2795.51   2795.51   
15	5591.02   2795.51   2795.51   
16	5591.02   2795.51   2795.51   
17	5591.02   2795.51   2795.51   
18	5591.02   2795.51   2795.51   
19	2484.90   1242.45   1242.45   
20	2484.90   1242.45   1242.45   
21	2484.90   1242.45   1242.45   
22	2484.90   1242.45   1242.45   
23	2484.90   1242.45   1242.45   
24	2484.90   1242.45   1242.45   
25	2484.90   1242.45   1242.45   
26	2484.90   1242.45   1242.45   
27	2484.90   1242.45   1242.45   
28	2484.90   1242.45   1242.45   
29	2484.90   1242.45   1242.45   
30	2484.90   1242.45   1242.45   
31	2484.90   1242.45   1242.45   
32	2484.90   1242.45   1242.45   
33	2484.90   1242.45   1242.45   
34	2484.90   1242.45   1242.45   
35	2484.90   1242.45   1242.45   
36	2484.90   1242.45   1242.45   
37	2484.90   1242.45   1242.45   
38	2484.90   1242.45   1242.45   
39	2484.90   1242.45   1242.45   
40	2484.90   1242.45   1242.45   
41	2484.90   1242.45   1242.45   
42	2484.90   1242.45   1242.45   
43	2484.90   1242.45   1242.45   
44	2484.90   1242.45   1242.45   
45	621.22    310.61    310.61    
; # water needed at front f in time slot t

param M := 100000000; 

param a1:= 10000000;

param a2:= 100;

param a3:= 0.0001;
